c *********************************
c * Circuit generated by BenCGen
c *
c * RippleCarryAdder_70_70_70_InOutT
c *
c * Ports with 1 gate(s): 1
c * Ports with 2 gate(s): 351
c * Total gates: 352
c *********************************
p cnf 492 1195
1 213 0
-1 -213 0
1 -212 0
213 -212 0
-1 -213 212 0
1 71 -215 0
-1 71 215 0
1 -71 215 0
-1 -71 -215 0
215 212 -141 0
-215 212 141 0
215 -212 141 0
-215 -212 -141 0
212 -216 0
215 -216 0
-212 -215 216 0
71 -217 0
1 -217 0
-71 -1 217 0
-216 214 0
-217 214 0
216 217 -214 0
2 72 -219 0
-2 72 219 0
2 -72 219 0
-2 -72 -219 0
219 214 -142 0
-219 214 142 0
219 -214 142 0
-219 -214 -142 0
214 -220 0
219 -220 0
-214 -219 220 0
72 -221 0
2 -221 0
-72 -2 221 0
-220 218 0
-221 218 0
220 221 -218 0
3 73 -223 0
-3 73 223 0
3 -73 223 0
-3 -73 -223 0
223 218 -143 0
-223 218 143 0
223 -218 143 0
-223 -218 -143 0
218 -224 0
223 -224 0
-218 -223 224 0
73 -225 0
3 -225 0
-73 -3 225 0
-224 222 0
-225 222 0
224 225 -222 0
4 74 -227 0
-4 74 227 0
4 -74 227 0
-4 -74 -227 0
227 222 -144 0
-227 222 144 0
227 -222 144 0
-227 -222 -144 0
222 -228 0
227 -228 0
-222 -227 228 0
74 -229 0
4 -229 0
-74 -4 229 0
-228 226 0
-229 226 0
228 229 -226 0
5 75 -231 0
-5 75 231 0
5 -75 231 0
-5 -75 -231 0
231 226 -145 0
-231 226 145 0
231 -226 145 0
-231 -226 -145 0
226 -232 0
231 -232 0
-226 -231 232 0
75 -233 0
5 -233 0
-75 -5 233 0
-232 230 0
-233 230 0
232 233 -230 0
6 76 -235 0
-6 76 235 0
6 -76 235 0
-6 -76 -235 0
235 230 -146 0
-235 230 146 0
235 -230 146 0
-235 -230 -146 0
230 -236 0
235 -236 0
-230 -235 236 0
76 -237 0
6 -237 0
-76 -6 237 0
-236 234 0
-237 234 0
236 237 -234 0
7 77 -239 0
-7 77 239 0
7 -77 239 0
-7 -77 -239 0
239 234 -147 0
-239 234 147 0
239 -234 147 0
-239 -234 -147 0
234 -240 0
239 -240 0
-234 -239 240 0
77 -241 0
7 -241 0
-77 -7 241 0
-240 238 0
-241 238 0
240 241 -238 0
8 78 -243 0
-8 78 243 0
8 -78 243 0
-8 -78 -243 0
243 238 -148 0
-243 238 148 0
243 -238 148 0
-243 -238 -148 0
238 -244 0
243 -244 0
-238 -243 244 0
78 -245 0
8 -245 0
-78 -8 245 0
-244 242 0
-245 242 0
244 245 -242 0
9 79 -247 0
-9 79 247 0
9 -79 247 0
-9 -79 -247 0
247 242 -149 0
-247 242 149 0
247 -242 149 0
-247 -242 -149 0
242 -248 0
247 -248 0
-242 -247 248 0
79 -249 0
9 -249 0
-79 -9 249 0
-248 246 0
-249 246 0
248 249 -246 0
10 80 -251 0
-10 80 251 0
10 -80 251 0
-10 -80 -251 0
251 246 -150 0
-251 246 150 0
251 -246 150 0
-251 -246 -150 0
246 -252 0
251 -252 0
-246 -251 252 0
80 -253 0
10 -253 0
-80 -10 253 0
-252 250 0
-253 250 0
252 253 -250 0
11 81 -255 0
-11 81 255 0
11 -81 255 0
-11 -81 -255 0
255 250 -151 0
-255 250 151 0
255 -250 151 0
-255 -250 -151 0
250 -256 0
255 -256 0
-250 -255 256 0
81 -257 0
11 -257 0
-81 -11 257 0
-256 254 0
-257 254 0
256 257 -254 0
12 82 -259 0
-12 82 259 0
12 -82 259 0
-12 -82 -259 0
259 254 -152 0
-259 254 152 0
259 -254 152 0
-259 -254 -152 0
254 -260 0
259 -260 0
-254 -259 260 0
82 -261 0
12 -261 0
-82 -12 261 0
-260 258 0
-261 258 0
260 261 -258 0
13 83 -263 0
-13 83 263 0
13 -83 263 0
-13 -83 -263 0
263 258 -153 0
-263 258 153 0
263 -258 153 0
-263 -258 -153 0
258 -264 0
263 -264 0
-258 -263 264 0
83 -265 0
13 -265 0
-83 -13 265 0
-264 262 0
-265 262 0
264 265 -262 0
14 84 -267 0
-14 84 267 0
14 -84 267 0
-14 -84 -267 0
267 262 -154 0
-267 262 154 0
267 -262 154 0
-267 -262 -154 0
262 -268 0
267 -268 0
-262 -267 268 0
84 -269 0
14 -269 0
-84 -14 269 0
-268 266 0
-269 266 0
268 269 -266 0
15 85 -271 0
-15 85 271 0
15 -85 271 0
-15 -85 -271 0
271 266 -155 0
-271 266 155 0
271 -266 155 0
-271 -266 -155 0
266 -272 0
271 -272 0
-266 -271 272 0
85 -273 0
15 -273 0
-85 -15 273 0
-272 270 0
-273 270 0
272 273 -270 0
16 86 -275 0
-16 86 275 0
16 -86 275 0
-16 -86 -275 0
275 270 -156 0
-275 270 156 0
275 -270 156 0
-275 -270 -156 0
270 -276 0
275 -276 0
-270 -275 276 0
86 -277 0
16 -277 0
-86 -16 277 0
-276 274 0
-277 274 0
276 277 -274 0
17 87 -279 0
-17 87 279 0
17 -87 279 0
-17 -87 -279 0
279 274 -157 0
-279 274 157 0
279 -274 157 0
-279 -274 -157 0
274 -280 0
279 -280 0
-274 -279 280 0
87 -281 0
17 -281 0
-87 -17 281 0
-280 278 0
-281 278 0
280 281 -278 0
18 88 -283 0
-18 88 283 0
18 -88 283 0
-18 -88 -283 0
283 278 -158 0
-283 278 158 0
283 -278 158 0
-283 -278 -158 0
278 -284 0
283 -284 0
-278 -283 284 0
88 -285 0
18 -285 0
-88 -18 285 0
-284 282 0
-285 282 0
284 285 -282 0
19 89 -287 0
-19 89 287 0
19 -89 287 0
-19 -89 -287 0
287 282 -159 0
-287 282 159 0
287 -282 159 0
-287 -282 -159 0
282 -288 0
287 -288 0
-282 -287 288 0
89 -289 0
19 -289 0
-89 -19 289 0
-288 286 0
-289 286 0
288 289 -286 0
20 90 -291 0
-20 90 291 0
20 -90 291 0
-20 -90 -291 0
291 286 -160 0
-291 286 160 0
291 -286 160 0
-291 -286 -160 0
286 -292 0
291 -292 0
-286 -291 292 0
90 -293 0
20 -293 0
-90 -20 293 0
-292 290 0
-293 290 0
292 293 -290 0
21 91 -295 0
-21 91 295 0
21 -91 295 0
-21 -91 -295 0
295 290 -161 0
-295 290 161 0
295 -290 161 0
-295 -290 -161 0
290 -296 0
295 -296 0
-290 -295 296 0
91 -297 0
21 -297 0
-91 -21 297 0
-296 294 0
-297 294 0
296 297 -294 0
22 92 -299 0
-22 92 299 0
22 -92 299 0
-22 -92 -299 0
299 294 -162 0
-299 294 162 0
299 -294 162 0
-299 -294 -162 0
294 -300 0
299 -300 0
-294 -299 300 0
92 -301 0
22 -301 0
-92 -22 301 0
-300 298 0
-301 298 0
300 301 -298 0
23 93 -303 0
-23 93 303 0
23 -93 303 0
-23 -93 -303 0
303 298 -163 0
-303 298 163 0
303 -298 163 0
-303 -298 -163 0
298 -304 0
303 -304 0
-298 -303 304 0
93 -305 0
23 -305 0
-93 -23 305 0
-304 302 0
-305 302 0
304 305 -302 0
24 94 -307 0
-24 94 307 0
24 -94 307 0
-24 -94 -307 0
307 302 -164 0
-307 302 164 0
307 -302 164 0
-307 -302 -164 0
302 -308 0
307 -308 0
-302 -307 308 0
94 -309 0
24 -309 0
-94 -24 309 0
-308 306 0
-309 306 0
308 309 -306 0
25 95 -311 0
-25 95 311 0
25 -95 311 0
-25 -95 -311 0
311 306 -165 0
-311 306 165 0
311 -306 165 0
-311 -306 -165 0
306 -312 0
311 -312 0
-306 -311 312 0
95 -313 0
25 -313 0
-95 -25 313 0
-312 310 0
-313 310 0
312 313 -310 0
26 96 -315 0
-26 96 315 0
26 -96 315 0
-26 -96 -315 0
315 310 -166 0
-315 310 166 0
315 -310 166 0
-315 -310 -166 0
310 -316 0
315 -316 0
-310 -315 316 0
96 -317 0
26 -317 0
-96 -26 317 0
-316 314 0
-317 314 0
316 317 -314 0
27 97 -319 0
-27 97 319 0
27 -97 319 0
-27 -97 -319 0
319 314 -167 0
-319 314 167 0
319 -314 167 0
-319 -314 -167 0
314 -320 0
319 -320 0
-314 -319 320 0
97 -321 0
27 -321 0
-97 -27 321 0
-320 318 0
-321 318 0
320 321 -318 0
28 98 -323 0
-28 98 323 0
28 -98 323 0
-28 -98 -323 0
323 318 -168 0
-323 318 168 0
323 -318 168 0
-323 -318 -168 0
318 -324 0
323 -324 0
-318 -323 324 0
98 -325 0
28 -325 0
-98 -28 325 0
-324 322 0
-325 322 0
324 325 -322 0
29 99 -327 0
-29 99 327 0
29 -99 327 0
-29 -99 -327 0
327 322 -169 0
-327 322 169 0
327 -322 169 0
-327 -322 -169 0
322 -328 0
327 -328 0
-322 -327 328 0
99 -329 0
29 -329 0
-99 -29 329 0
-328 326 0
-329 326 0
328 329 -326 0
30 100 -331 0
-30 100 331 0
30 -100 331 0
-30 -100 -331 0
331 326 -170 0
-331 326 170 0
331 -326 170 0
-331 -326 -170 0
326 -332 0
331 -332 0
-326 -331 332 0
100 -333 0
30 -333 0
-100 -30 333 0
-332 330 0
-333 330 0
332 333 -330 0
31 101 -335 0
-31 101 335 0
31 -101 335 0
-31 -101 -335 0
335 330 -171 0
-335 330 171 0
335 -330 171 0
-335 -330 -171 0
330 -336 0
335 -336 0
-330 -335 336 0
101 -337 0
31 -337 0
-101 -31 337 0
-336 334 0
-337 334 0
336 337 -334 0
32 102 -339 0
-32 102 339 0
32 -102 339 0
-32 -102 -339 0
339 334 -172 0
-339 334 172 0
339 -334 172 0
-339 -334 -172 0
334 -340 0
339 -340 0
-334 -339 340 0
102 -341 0
32 -341 0
-102 -32 341 0
-340 338 0
-341 338 0
340 341 -338 0
33 103 -343 0
-33 103 343 0
33 -103 343 0
-33 -103 -343 0
343 338 -173 0
-343 338 173 0
343 -338 173 0
-343 -338 -173 0
338 -344 0
343 -344 0
-338 -343 344 0
103 -345 0
33 -345 0
-103 -33 345 0
-344 342 0
-345 342 0
344 345 -342 0
34 104 -347 0
-34 104 347 0
34 -104 347 0
-34 -104 -347 0
347 342 -174 0
-347 342 174 0
347 -342 174 0
-347 -342 -174 0
342 -348 0
347 -348 0
-342 -347 348 0
104 -349 0
34 -349 0
-104 -34 349 0
-348 346 0
-349 346 0
348 349 -346 0
35 105 -351 0
-35 105 351 0
35 -105 351 0
-35 -105 -351 0
351 346 -175 0
-351 346 175 0
351 -346 175 0
-351 -346 -175 0
346 -352 0
351 -352 0
-346 -351 352 0
105 -353 0
35 -353 0
-105 -35 353 0
-352 350 0
-353 350 0
352 353 -350 0
36 106 -355 0
-36 106 355 0
36 -106 355 0
-36 -106 -355 0
355 350 -176 0
-355 350 176 0
355 -350 176 0
-355 -350 -176 0
350 -356 0
355 -356 0
-350 -355 356 0
106 -357 0
36 -357 0
-106 -36 357 0
-356 354 0
-357 354 0
356 357 -354 0
37 107 -359 0
-37 107 359 0
37 -107 359 0
-37 -107 -359 0
359 354 -177 0
-359 354 177 0
359 -354 177 0
-359 -354 -177 0
354 -360 0
359 -360 0
-354 -359 360 0
107 -361 0
37 -361 0
-107 -37 361 0
-360 358 0
-361 358 0
360 361 -358 0
38 108 -363 0
-38 108 363 0
38 -108 363 0
-38 -108 -363 0
363 358 -178 0
-363 358 178 0
363 -358 178 0
-363 -358 -178 0
358 -364 0
363 -364 0
-358 -363 364 0
108 -365 0
38 -365 0
-108 -38 365 0
-364 362 0
-365 362 0
364 365 -362 0
39 109 -367 0
-39 109 367 0
39 -109 367 0
-39 -109 -367 0
367 362 -179 0
-367 362 179 0
367 -362 179 0
-367 -362 -179 0
362 -368 0
367 -368 0
-362 -367 368 0
109 -369 0
39 -369 0
-109 -39 369 0
-368 366 0
-369 366 0
368 369 -366 0
40 110 -371 0
-40 110 371 0
40 -110 371 0
-40 -110 -371 0
371 366 -180 0
-371 366 180 0
371 -366 180 0
-371 -366 -180 0
366 -372 0
371 -372 0
-366 -371 372 0
110 -373 0
40 -373 0
-110 -40 373 0
-372 370 0
-373 370 0
372 373 -370 0
41 111 -375 0
-41 111 375 0
41 -111 375 0
-41 -111 -375 0
375 370 -181 0
-375 370 181 0
375 -370 181 0
-375 -370 -181 0
370 -376 0
375 -376 0
-370 -375 376 0
111 -377 0
41 -377 0
-111 -41 377 0
-376 374 0
-377 374 0
376 377 -374 0
42 112 -379 0
-42 112 379 0
42 -112 379 0
-42 -112 -379 0
379 374 -182 0
-379 374 182 0
379 -374 182 0
-379 -374 -182 0
374 -380 0
379 -380 0
-374 -379 380 0
112 -381 0
42 -381 0
-112 -42 381 0
-380 378 0
-381 378 0
380 381 -378 0
43 113 -383 0
-43 113 383 0
43 -113 383 0
-43 -113 -383 0
383 378 -183 0
-383 378 183 0
383 -378 183 0
-383 -378 -183 0
378 -384 0
383 -384 0
-378 -383 384 0
113 -385 0
43 -385 0
-113 -43 385 0
-384 382 0
-385 382 0
384 385 -382 0
44 114 -387 0
-44 114 387 0
44 -114 387 0
-44 -114 -387 0
387 382 -184 0
-387 382 184 0
387 -382 184 0
-387 -382 -184 0
382 -388 0
387 -388 0
-382 -387 388 0
114 -389 0
44 -389 0
-114 -44 389 0
-388 386 0
-389 386 0
388 389 -386 0
45 115 -391 0
-45 115 391 0
45 -115 391 0
-45 -115 -391 0
391 386 -185 0
-391 386 185 0
391 -386 185 0
-391 -386 -185 0
386 -392 0
391 -392 0
-386 -391 392 0
115 -393 0
45 -393 0
-115 -45 393 0
-392 390 0
-393 390 0
392 393 -390 0
46 116 -395 0
-46 116 395 0
46 -116 395 0
-46 -116 -395 0
395 390 -186 0
-395 390 186 0
395 -390 186 0
-395 -390 -186 0
390 -396 0
395 -396 0
-390 -395 396 0
116 -397 0
46 -397 0
-116 -46 397 0
-396 394 0
-397 394 0
396 397 -394 0
47 117 -399 0
-47 117 399 0
47 -117 399 0
-47 -117 -399 0
399 394 -187 0
-399 394 187 0
399 -394 187 0
-399 -394 -187 0
394 -400 0
399 -400 0
-394 -399 400 0
117 -401 0
47 -401 0
-117 -47 401 0
-400 398 0
-401 398 0
400 401 -398 0
48 118 -403 0
-48 118 403 0
48 -118 403 0
-48 -118 -403 0
403 398 -188 0
-403 398 188 0
403 -398 188 0
-403 -398 -188 0
398 -404 0
403 -404 0
-398 -403 404 0
118 -405 0
48 -405 0
-118 -48 405 0
-404 402 0
-405 402 0
404 405 -402 0
49 119 -407 0
-49 119 407 0
49 -119 407 0
-49 -119 -407 0
407 402 -189 0
-407 402 189 0
407 -402 189 0
-407 -402 -189 0
402 -408 0
407 -408 0
-402 -407 408 0
119 -409 0
49 -409 0
-119 -49 409 0
-408 406 0
-409 406 0
408 409 -406 0
50 120 -411 0
-50 120 411 0
50 -120 411 0
-50 -120 -411 0
411 406 -190 0
-411 406 190 0
411 -406 190 0
-411 -406 -190 0
406 -412 0
411 -412 0
-406 -411 412 0
120 -413 0
50 -413 0
-120 -50 413 0
-412 410 0
-413 410 0
412 413 -410 0
51 121 -415 0
-51 121 415 0
51 -121 415 0
-51 -121 -415 0
415 410 -191 0
-415 410 191 0
415 -410 191 0
-415 -410 -191 0
410 -416 0
415 -416 0
-410 -415 416 0
121 -417 0
51 -417 0
-121 -51 417 0
-416 414 0
-417 414 0
416 417 -414 0
52 122 -419 0
-52 122 419 0
52 -122 419 0
-52 -122 -419 0
419 414 -192 0
-419 414 192 0
419 -414 192 0
-419 -414 -192 0
414 -420 0
419 -420 0
-414 -419 420 0
122 -421 0
52 -421 0
-122 -52 421 0
-420 418 0
-421 418 0
420 421 -418 0
53 123 -423 0
-53 123 423 0
53 -123 423 0
-53 -123 -423 0
423 418 -193 0
-423 418 193 0
423 -418 193 0
-423 -418 -193 0
418 -424 0
423 -424 0
-418 -423 424 0
123 -425 0
53 -425 0
-123 -53 425 0
-424 422 0
-425 422 0
424 425 -422 0
54 124 -427 0
-54 124 427 0
54 -124 427 0
-54 -124 -427 0
427 422 -194 0
-427 422 194 0
427 -422 194 0
-427 -422 -194 0
422 -428 0
427 -428 0
-422 -427 428 0
124 -429 0
54 -429 0
-124 -54 429 0
-428 426 0
-429 426 0
428 429 -426 0
55 125 -431 0
-55 125 431 0
55 -125 431 0
-55 -125 -431 0
431 426 -195 0
-431 426 195 0
431 -426 195 0
-431 -426 -195 0
426 -432 0
431 -432 0
-426 -431 432 0
125 -433 0
55 -433 0
-125 -55 433 0
-432 430 0
-433 430 0
432 433 -430 0
56 126 -435 0
-56 126 435 0
56 -126 435 0
-56 -126 -435 0
435 430 -196 0
-435 430 196 0
435 -430 196 0
-435 -430 -196 0
430 -436 0
435 -436 0
-430 -435 436 0
126 -437 0
56 -437 0
-126 -56 437 0
-436 434 0
-437 434 0
436 437 -434 0
57 127 -439 0
-57 127 439 0
57 -127 439 0
-57 -127 -439 0
439 434 -197 0
-439 434 197 0
439 -434 197 0
-439 -434 -197 0
434 -440 0
439 -440 0
-434 -439 440 0
127 -441 0
57 -441 0
-127 -57 441 0
-440 438 0
-441 438 0
440 441 -438 0
58 128 -443 0
-58 128 443 0
58 -128 443 0
-58 -128 -443 0
443 438 -198 0
-443 438 198 0
443 -438 198 0
-443 -438 -198 0
438 -444 0
443 -444 0
-438 -443 444 0
128 -445 0
58 -445 0
-128 -58 445 0
-444 442 0
-445 442 0
444 445 -442 0
59 129 -447 0
-59 129 447 0
59 -129 447 0
-59 -129 -447 0
447 442 -199 0
-447 442 199 0
447 -442 199 0
-447 -442 -199 0
442 -448 0
447 -448 0
-442 -447 448 0
129 -449 0
59 -449 0
-129 -59 449 0
-448 446 0
-449 446 0
448 449 -446 0
60 130 -451 0
-60 130 451 0
60 -130 451 0
-60 -130 -451 0
451 446 -200 0
-451 446 200 0
451 -446 200 0
-451 -446 -200 0
446 -452 0
451 -452 0
-446 -451 452 0
130 -453 0
60 -453 0
-130 -60 453 0
-452 450 0
-453 450 0
452 453 -450 0
61 131 -455 0
-61 131 455 0
61 -131 455 0
-61 -131 -455 0
455 450 -201 0
-455 450 201 0
455 -450 201 0
-455 -450 -201 0
450 -456 0
455 -456 0
-450 -455 456 0
131 -457 0
61 -457 0
-131 -61 457 0
-456 454 0
-457 454 0
456 457 -454 0
62 132 -459 0
-62 132 459 0
62 -132 459 0
-62 -132 -459 0
459 454 -202 0
-459 454 202 0
459 -454 202 0
-459 -454 -202 0
454 -460 0
459 -460 0
-454 -459 460 0
132 -461 0
62 -461 0
-132 -62 461 0
-460 458 0
-461 458 0
460 461 -458 0
63 133 -463 0
-63 133 463 0
63 -133 463 0
-63 -133 -463 0
463 458 -203 0
-463 458 203 0
463 -458 203 0
-463 -458 -203 0
458 -464 0
463 -464 0
-458 -463 464 0
133 -465 0
63 -465 0
-133 -63 465 0
-464 462 0
-465 462 0
464 465 -462 0
64 134 -467 0
-64 134 467 0
64 -134 467 0
-64 -134 -467 0
467 462 -204 0
-467 462 204 0
467 -462 204 0
-467 -462 -204 0
462 -468 0
467 -468 0
-462 -467 468 0
134 -469 0
64 -469 0
-134 -64 469 0
-468 466 0
-469 466 0
468 469 -466 0
65 135 -471 0
-65 135 471 0
65 -135 471 0
-65 -135 -471 0
471 466 -205 0
-471 466 205 0
471 -466 205 0
-471 -466 -205 0
466 -472 0
471 -472 0
-466 -471 472 0
135 -473 0
65 -473 0
-135 -65 473 0
-472 470 0
-473 470 0
472 473 -470 0
66 136 -475 0
-66 136 475 0
66 -136 475 0
-66 -136 -475 0
475 470 -206 0
-475 470 206 0
475 -470 206 0
-475 -470 -206 0
470 -476 0
475 -476 0
-470 -475 476 0
136 -477 0
66 -477 0
-136 -66 477 0
-476 474 0
-477 474 0
476 477 -474 0
67 137 -479 0
-67 137 479 0
67 -137 479 0
-67 -137 -479 0
479 474 -207 0
-479 474 207 0
479 -474 207 0
-479 -474 -207 0
474 -480 0
479 -480 0
-474 -479 480 0
137 -481 0
67 -481 0
-137 -67 481 0
-480 478 0
-481 478 0
480 481 -478 0
68 138 -483 0
-68 138 483 0
68 -138 483 0
-68 -138 -483 0
483 478 -208 0
-483 478 208 0
483 -478 208 0
-483 -478 -208 0
478 -484 0
483 -484 0
-478 -483 484 0
138 -485 0
68 -485 0
-138 -68 485 0
-484 482 0
-485 482 0
484 485 -482 0
69 139 -487 0
-69 139 487 0
69 -139 487 0
-69 -139 -487 0
487 482 -209 0
-487 482 209 0
487 -482 209 0
-487 -482 -209 0
482 -488 0
487 -488 0
-482 -487 488 0
139 -489 0
69 -489 0
-139 -69 489 0
-488 486 0
-489 486 0
488 489 -486 0
70 140 -490 0
-70 140 490 0
70 -140 490 0
-70 -140 -490 0
490 486 -210 0
-490 486 210 0
490 -486 210 0
-490 -486 -210 0
486 -491 0
490 -491 0
-486 -490 491 0
140 -492 0
70 -492 0
-140 -70 492 0
-491 211 0
-492 211 0
491 492 -211 0
